10 45
1 2 1
1 3 25
1 4 5
1 5 22
1 6 20
1 7 0
1 8 3
1 9 23
1 10 12
2 3 0
2 4 19
2 5 23
2 6 12
2 7 12
2 8 5
2 9 8
2 10 24
3 4 18
3 5 11
3 6 28
3 7 24
3 8 7
3 9 1
3 10 22
4 5 14
4 6 13
4 7 28
4 8 2
4 9 19
4 10 0
5 6 28
5 7 0
5 8 5
5 9 6
5 10 4
6 7 8
6 8 28
6 9 13
6 10 15
7 8 26
7 9 4
7 10 7
8 9 12
8 10 12
9 10 12
